NAME          
ROWS
 N  OBJ
 L  c1
COLUMNS
    MARKER    'MARKER'                 'INTORG'
    x[1]      c1        495
    x[1]      OBJ       -331
    x[2]      c1        97
    x[2]      OBJ       -703
    x[3]      c1        224
    x[3]      OBJ       -987
    x[4]      c1        747
    x[4]      OBJ       -885
    x[5]      c1        842
    x[5]      OBJ       -539
    x[6]      c1        977
    x[6]      OBJ       -991
    x[7]      c1        195
    x[7]      OBJ       -192
    x[8]      c1        757
    x[8]      OBJ       -7
    x[9]      c1        649
    x[9]      OBJ       -763
    x[10]     c1        454
    x[10]     OBJ       -411
    x[11]     c1        489
    x[11]     OBJ       -891
    x[12]     c1        719
    x[12]     OBJ       -153
    x[13]     c1        704
    x[13]     OBJ       -765
    x[14]     c1        151
    x[14]     OBJ       -933
    x[15]     c1        811
    x[15]     OBJ       -799
    x[16]     c1        635
    x[16]     OBJ       -475
    x[17]     c1        987
    x[17]     OBJ       -559
    x[18]     c1        186
    x[18]     OBJ       -201
    x[19]     c1        76
    x[19]     OBJ       -505
    x[20]     c1        96
    x[20]     OBJ       -192
    x[21]     c1        663
    x[21]     OBJ       -70
    x[22]     c1        41
    x[22]     OBJ       -734
    x[23]     c1        287
    x[23]     OBJ       -930
    x[24]     c1        116
    x[24]     OBJ       -785
    x[25]     c1        78
    x[25]     OBJ       -373
    x[26]     c1        416
    x[26]     OBJ       -699
    x[27]     c1        841
    x[27]     OBJ       -839
    x[28]     c1        785
    x[28]     OBJ       -878
    x[29]     c1        666
    x[29]     OBJ       -210
    x[30]     c1        435
    x[30]     OBJ       -318
    x[31]     c1        343
    x[31]     OBJ       -485
    x[32]     c1        550
    x[32]     OBJ       -917
    x[33]     c1        529
    x[33]     OBJ       -589
    x[34]     c1        538
    x[34]     OBJ       -232
    x[35]     c1        612
    x[35]     OBJ       -109
    x[36]     c1        606
    x[36]     OBJ       -229
    x[37]     c1        952
    x[37]     OBJ       -217
    x[38]     c1        122
    x[38]     OBJ       -312
    x[39]     c1        141
    x[39]     OBJ       -386
    x[40]     c1        710
    x[40]     OBJ       -421
    x[41]     c1        451
    x[41]     OBJ       -293
    x[42]     c1        927
    x[42]     OBJ       -505
    x[43]     c1        281
    x[43]     OBJ       -327
    x[44]     c1        558
    x[44]     OBJ       -287
    x[45]     c1        217
    x[45]     OBJ       -604
    x[46]     c1        309
    x[46]     OBJ       -180
    x[47]     c1        344
    x[47]     OBJ       -488
    x[48]     c1        257
    x[48]     OBJ       -4
    x[49]     c1        67
    x[49]     OBJ       -672
    x[50]     c1        679
    x[50]     OBJ       -367
    x[51]     c1        63
    x[51]     OBJ       -935
    x[52]     c1        120
    x[52]     OBJ       -867
    x[53]     c1        197
    x[53]     OBJ       -720
    x[54]     c1        492
    x[54]     OBJ       -690
    x[55]     c1        317
    x[55]     OBJ       -420
    x[56]     c1        9
    x[56]     OBJ       -263
    x[57]     c1        11
    x[57]     OBJ       -540
    x[58]     c1        229
    x[58]     OBJ       -555
    x[59]     c1        568
    x[59]     OBJ       -326
    x[60]     c1        787
    x[60]     OBJ       -671
    x[61]     c1        754
    x[61]     OBJ       -615
    x[62]     c1        231
    x[62]     OBJ       -91
    x[63]     c1        847
    x[63]     OBJ       -3
    x[64]     c1        904
    x[64]     OBJ       -672
    x[65]     c1        519
    x[65]     OBJ       -498
    x[66]     c1        540
    x[66]     OBJ       -76
    x[67]     c1        347
    x[67]     OBJ       -329
    x[68]     c1        267
    x[68]     OBJ       -922
    x[69]     c1        209
    x[69]     OBJ       -581
    x[70]     c1        125
    x[70]     OBJ       -608
    x[71]     c1        415
    x[71]     OBJ       -586
    x[72]     c1        969
    x[72]     OBJ       -463
    x[73]     c1        534
    x[73]     OBJ       -755
    x[74]     c1        331
    x[74]     OBJ       -959
    x[75]     c1        781
    x[75]     OBJ       -15
RHS
    rhs       c1        17189
RANGES
BOUNDS
 LO bounds    x[1]      0
 PL bounds    x[1]
 LO bounds    x[2]      0
 PL bounds    x[2]
 LO bounds    x[3]      0
 PL bounds    x[3]
 LO bounds    x[4]      0
 PL bounds    x[4]
 LO bounds    x[5]      0
 PL bounds    x[5]
 LO bounds    x[6]      0
 PL bounds    x[6]
 LO bounds    x[7]      0
 PL bounds    x[7]
 LO bounds    x[8]      0
 PL bounds    x[8]
 LO bounds    x[9]      0
 PL bounds    x[9]
 LO bounds    x[10]     0
 PL bounds    x[10]
 LO bounds    x[11]     0
 PL bounds    x[11]
 LO bounds    x[12]     0
 PL bounds    x[12]
 LO bounds    x[13]     0
 PL bounds    x[13]
 LO bounds    x[14]     0
 PL bounds    x[14]
 LO bounds    x[15]     0
 PL bounds    x[15]
 LO bounds    x[16]     0
 PL bounds    x[16]
 LO bounds    x[17]     0
 PL bounds    x[17]
 LO bounds    x[18]     0
 PL bounds    x[18]
 LO bounds    x[19]     0
 PL bounds    x[19]
 LO bounds    x[20]     0
 PL bounds    x[20]
 LO bounds    x[21]     0
 PL bounds    x[21]
 LO bounds    x[22]     0
 PL bounds    x[22]
 LO bounds    x[23]     0
 PL bounds    x[23]
 LO bounds    x[24]     0
 PL bounds    x[24]
 LO bounds    x[25]     0
 PL bounds    x[25]
 LO bounds    x[26]     0
 PL bounds    x[26]
 LO bounds    x[27]     0
 PL bounds    x[27]
 LO bounds    x[28]     0
 PL bounds    x[28]
 LO bounds    x[29]     0
 PL bounds    x[29]
 LO bounds    x[30]     0
 PL bounds    x[30]
 LO bounds    x[31]     0
 PL bounds    x[31]
 LO bounds    x[32]     0
 PL bounds    x[32]
 LO bounds    x[33]     0
 PL bounds    x[33]
 LO bounds    x[34]     0
 PL bounds    x[34]
 LO bounds    x[35]     0
 PL bounds    x[35]
 LO bounds    x[36]     0
 PL bounds    x[36]
 LO bounds    x[37]     0
 PL bounds    x[37]
 LO bounds    x[38]     0
 PL bounds    x[38]
 LO bounds    x[39]     0
 PL bounds    x[39]
 LO bounds    x[40]     0
 PL bounds    x[40]
 LO bounds    x[41]     0
 PL bounds    x[41]
 LO bounds    x[42]     0
 PL bounds    x[42]
 LO bounds    x[43]     0
 PL bounds    x[43]
 LO bounds    x[44]     0
 PL bounds    x[44]
 LO bounds    x[45]     0
 PL bounds    x[45]
 LO bounds    x[46]     0
 PL bounds    x[46]
 LO bounds    x[47]     0
 PL bounds    x[47]
 LO bounds    x[48]     0
 PL bounds    x[48]
 LO bounds    x[49]     0
 PL bounds    x[49]
 LO bounds    x[50]     0
 PL bounds    x[50]
 LO bounds    x[51]     0
 PL bounds    x[51]
 LO bounds    x[52]     0
 PL bounds    x[52]
 LO bounds    x[53]     0
 PL bounds    x[53]
 LO bounds    x[54]     0
 PL bounds    x[54]
 LO bounds    x[55]     0
 PL bounds    x[55]
 LO bounds    x[56]     0
 PL bounds    x[56]
 LO bounds    x[57]     0
 PL bounds    x[57]
 LO bounds    x[58]     0
 PL bounds    x[58]
 LO bounds    x[59]     0
 PL bounds    x[59]
 LO bounds    x[60]     0
 PL bounds    x[60]
 LO bounds    x[61]     0
 PL bounds    x[61]
 LO bounds    x[62]     0
 PL bounds    x[62]
 LO bounds    x[63]     0
 PL bounds    x[63]
 LO bounds    x[64]     0
 PL bounds    x[64]
 LO bounds    x[65]     0
 PL bounds    x[65]
 LO bounds    x[66]     0
 PL bounds    x[66]
 LO bounds    x[67]     0
 PL bounds    x[67]
 LO bounds    x[68]     0
 PL bounds    x[68]
 LO bounds    x[69]     0
 PL bounds    x[69]
 LO bounds    x[70]     0
 PL bounds    x[70]
 LO bounds    x[71]     0
 PL bounds    x[71]
 LO bounds    x[72]     0
 PL bounds    x[72]
 LO bounds    x[73]     0
 PL bounds    x[73]
 LO bounds    x[74]     0
 PL bounds    x[74]
 LO bounds    x[75]     0
 PL bounds    x[75]
ENDATA
